     Program PWSCF v.6.7GPU starts on 24May2021 at  3: 1:27

     R & G space division:  proc/nbgrp/npool/nimage =       4
     Waiting for input...
     Reading input from standard input
     Message from routine read_cards :
     DEPRECATED: no units specified in CELL_PARAMETERS card

     Current dimensions of program PWSCF are:
     Max number of different atomic species (ntypx) = 10
     Max number of k-points (npk) =  40000
     Max angular momentum in pseudopotentials (lmaxx) =  3

     gamma-point specific algorithms are used
     Message from routine setup:
     using ibrav=0 with symmetry is DISCOURAGED, use correct ibrav instead

     Using Slab Decomposition

     bravais-lattice index     =            0
     lattice parameter (alat)  =      20.0000  a.u.
     unit-cell volume          =    8000.0000 (a.u.)^3
     number of atoms/cell      =            8
     number of atomic types    =            2
     number of electrons       =        12.00
     number of Kohn-Sham states=            6
     kinetic-energy cutoff     =      65.0000  Ry
     charge density cutoff     =     260.0000  Ry
     scf convergence threshold =      1.0E-12
     mixing beta               =       0.5000
     number of iterations used =            8  plain     mixing
     Exchange-correlation= PBE
                           (   1   4   3   4   0   0   0)

     celldm(1)=  20.000000  celldm(2)=   0.000000  celldm(3)=   0.000000
     celldm(4)=   0.000000  celldm(5)=   0.000000  celldm(6)=   0.000000

     crystal axes: (cart. coord. in units of alat)
               a(1) = (   1.000000   0.000000   0.000000 )
               a(2) = (   0.000000   1.000000   0.000000 )
               a(3) = (   0.000000   0.000000   1.000000 )

     reciprocal axes: (cart. coord. in units 2 pi/alat)
               b(1) = (  1.000000  0.000000  0.000000 )
               b(2) = (  0.000000  1.000000  0.000000 )
               b(3) = (  0.000000  0.000000  1.000000 )

     PseudoPot. # 1 for B  read from file:
     /home/ciga/builds/pseudo_potentials/B.upf
     MD5 check sum: 8d3529416d991d290d09c9d3752026a1
     Pseudo is Norm-conserving + core correction, Zval =  3.0
     Generated using ONCVPSP code by D. R. Hamann
     Using radial grid of 1534 points,  4 beta functions with:
                l(1) =   0
                l(2) =   0
                l(3) =   1
                l(4) =   1

     PseudoPot. # 2 for H  read from file:
     /home/ciga/builds/pseudo_potentials/H.upf
     MD5 check sum: 418cee52d0c413ae40802e6cc37ab9e3
     Pseudo is Norm-conserving, Zval =  1.0
     Generated using ONCVPSP code by D. R. Hamann
     Using radial grid of 1166 points,  3 beta functions with:
                l(1) =   0
                l(2) =   0
                l(3) =   1

     atomic species   valence    mass     pseudopotential
        B              3.00    10.81100     B ( 1.00)
        H              1.00     1.00794     H ( 1.00)

      8 Sym. Ops., with inversion, found

   Cartesian axes

     site n.     atom                  positions (alat units)
         1           B   tau(   1) = (   0.0000000   0.0000000   0.0838094  )
         2           B   tau(   2) = (   0.0000000   0.0000000  -0.0838094  )
         3           H   tau(   3) = (   0.0941084   0.0000000   0.0000000  )
         4           H   tau(   4) = (  -0.0941084   0.0000000   0.0000000  )
         5           H   tau(   5) = (   0.0000000   0.0983413   0.1383185  )
         6           H   tau(   6) = (   0.0000000  -0.0983413   0.1383185  )
         7           H   tau(   7) = (   0.0000000   0.0983413  -0.1383185  )
         8           H   tau(   8) = (   0.0000000  -0.0983413  -0.1383185  )

     number of k points=     1
                       cart. coord. in units 2pi/alat
        k(    1) = (   0.0000000   0.0000000   0.0000000), wk =   2.0000000

     Initial potential from superposition of free atoms

     starting charge   11.99945, renormalised to   12.00000

     negative rho (up, down):  2.241E-04 0.000E+00
     Starting wfcs are   14 randomized atomic wfcs

     Self-consistent Calculation

     iteration #  1     ecut=    65.00 Ry     beta= 0.50
     Davidson diagonalization with overlap
     ethr =  1.00E-02,  avg # of iterations =  3.0

     negative rho (up, down):  8.807E-05 0.000E+00

     total energy              =     -18.75698807 Ry
     estimated scf accuracy    <       0.57820906 Ry

[...]

     negative rho (up, down):  1.191E-08 0.000E+00

[...]

     total energy              =     -18.77959407 Ry
     estimated scf accuracy    <          4.4E-12 Ry

     iteration # 14     ecut=    65.00 Ry     beta= 0.50
     Davidson diagonalization with overlap
     ethr =  1.00E-13,  avg # of iterations =  3.0

     End of self-consistent calculation

          k = 0.0000 0.0000 0.0000 ( 35376 PWs)   bands (ev):

   -16.1730 -10.9467 -10.2916  -9.1361  -8.7621  -7.5960

     highest occupied level (ev):    -7.5960

!    total energy              =     -18.77959407 Ry
     estimated scf accuracy    <          7.6E-13 Ry

     The total energy is the sum of the following terms:
     one-electron contribution =     -56.37656076 Ry
     hartree contribution      =      29.09021786 Ry
     xc contribution           =      -8.99975354 Ry
     ewald contribution        =      17.50650237 Ry

     convergence has been achieved in  14 iterations

     Forces acting on atoms (cartesian axes, Ry/au):

     atom    1 type  1   force =     0.00000000    0.00000000   -0.01731279
     atom    2 type  1   force =     0.00000000    0.00000000    0.01731279
     atom    3 type  2   force =    -0.00872169    0.00000000    0.00000000
     atom    4 type  2   force =     0.00872169    0.00000000    0.00000000
     atom    5 type  2   force =     0.00000000    0.00382591    0.00197542
     atom    6 type  2   force =    -0.00000000   -0.00382591    0.00197542
     atom    7 type  2   force =     0.00000000    0.00382591   -0.00197542
     atom    8 type  2   force =     0.00000000   -0.00382591   -0.00197542

     Total force =     0.028736     Total SCF correction =     0.000000

     Writing output data file ./Diborane6.save/

     General routines

     Parallel routines

   This run was terminated on:   3: 1:41  24May2021

   JOB DONE.