     Program PWSCF v.6.7GPU starts on 24May2021 at  2:41:37

     R & G space division:  proc/nbgrp/npool/nimage =       4
     Waiting for input...
     Reading input from standard input
     Message from routine read_cards :
     DEPRECATED: no units specified in CELL_PARAMETERS card

     Current dimensions of program PWSCF are:
     Max number of different atomic species (ntypx) = 10
     Max number of k-points (npk) =  40000
     Max angular momentum in pseudopotentials (lmaxx) =  3

     gamma-point specific algorithms are used
     Message from routine setup:
     using ibrav=0 with symmetry is DISCOURAGED, use correct ibrav instead

     Using Slab Decomposition

     bravais-lattice index     =            0
     lattice parameter (alat)  =      20.0000  a.u.
     unit-cell volume          =    8000.0000 (a.u.)^3
     number of atoms/cell      =            8
     number of atomic types    =            2
     number of electrons       =        14.00
     number of Kohn-Sham states=            7
     kinetic-energy cutoff     =      90.0000  Ry
     charge density cutoff     =     360.0000  Ry
     scf convergence threshold =      1.0E-12
     mixing beta               =       0.5000
     number of iterations used =            8  plain     mixing
     Exchange-correlation= PBE
                           (   1   4   3   4   0   0   0)

     celldm(1)=  20.000000  celldm(2)=   0.000000  celldm(3)=   0.000000
     celldm(4)=   0.000000  celldm(5)=   0.000000  celldm(6)=   0.000000

     crystal axes: (cart. coord. in units of alat)
               a(1) = (   1.000000   0.000000   0.000000 )
               a(2) = (   0.000000   1.000000   0.000000 )
               a(3) = (   0.000000   0.000000   1.000000 )

     reciprocal axes: (cart. coord. in units 2 pi/alat)
               b(1) = (  1.000000  0.000000  0.000000 )
               b(2) = (  0.000000  1.000000  0.000000 )
               b(3) = (  0.000000  0.000000  1.000000 )

     PseudoPot. # 1 for Si read from file:
     /home/ciga/builds/pseudo_potentials/Si.upf
     MD5 check sum: d8e8ea3dd55db7858206a05f373c9c65
     Pseudo is Norm-conserving + core correction, Zval =  4.0
     Generated using ONCVPSP code by D. R. Hamann
     Using radial grid of 1528 points,  6 beta functions with:
                l(1) =   0
                l(2) =   0
                l(3) =   1
                l(4) =   1
                l(5) =   2
                l(6) =   2

     PseudoPot. # 2 for H  read from file:
     /home/ciga/builds/pseudo_potentials/H.upf
     MD5 check sum: 418cee52d0c413ae40802e6cc37ab9e3
     Pseudo is Norm-conserving, Zval =  1.0
     Generated using ONCVPSP code by D. R. Hamann
     Using radial grid of 1166 points,  3 beta functions with:
                l(1) =   0
                l(2) =   0
                l(3) =   1

     atomic species   valence    mass     pseudopotential
        Si             4.00    28.08550     Si( 1.00)
        H              1.00     1.00794     H ( 1.00)

      4 Sym. Ops., with inversion, found

   Cartesian axes

     site n.     atom                  positions (alat units)
         1           Si  tau(   1) = (   0.0000000   0.0000000  -0.1101238  )
         2           Si  tau(   2) = (   0.0000000   0.0000000   0.1101238  )
         3           H   tau(   3) = (   0.1322175   0.0000000   0.1590325  )
         4           H   tau(   4) = (  -0.1322175   0.0000000  -0.1590325  )
         5           H   tau(   5) = (   0.0660932   0.1144796  -0.1590325  )
         6           H   tau(   6) = (   0.0660932  -0.1144796  -0.1590325  )
         7           H   tau(   7) = (  -0.0660932  -0.1144796   0.1590325  )
         8           H   tau(   8) = (  -0.0660932   0.1144796   0.1590325  )

     number of k points=     1
                       cart. coord. in units 2pi/alat
        k(    1) = (   0.0000000   0.0000000   0.0000000), wk =   2.0000000

     Initial potential from superposition of free atoms

     starting charge   13.99872, renormalised to   14.00000

     negative rho (up, down):  5.511E-06 0.000E+00
     Starting wfcs are   14 randomized atomic wfcs

     Self-consistent Calculation

     iteration #  1     ecut=    90.00 Ry     beta= 0.50
     Davidson diagonalization with overlap
     ethr =  1.00E-02,  avg # of iterations =  2.0

     negative rho (up, down):  4.950E-07 0.000E+00

     total energy              =     -23.91672005 Ry
     estimated scf accuracy    <       0.37968398 Ry

[...]

     total energy              =     -23.90672547 Ry
     estimated scf accuracy    <          2.6E-12 Ry

     iteration # 16     ecut=    90.00 Ry     beta= 0.50
     Davidson diagonalization with overlap
     ethr =  1.00E-13,  avg # of iterations =  1.0

     End of self-consistent calculation

          k = 0.0000 0.0000 0.0000 ( 57657 PWs)   bands (ev):

   -13.6235 -11.9985  -8.4262  -8.4256  -7.7840  -7.7835  -6.8324

     highest occupied level (ev):    -6.8324

!    total energy              =     -23.90672547 Ry
     estimated scf accuracy    <          3.3E-13 Ry

     The total energy is the sum of the following terms:
     one-electron contribution =     -50.72322188 Ry
     hartree contribution      =      26.43588873 Ry
     xc contribution           =     -10.25851615 Ry
     ewald contribution        =      10.63912384 Ry

     convergence has been achieved in  16 iterations

     Forces acting on atoms (cartesian axes, Ry/au):

     atom    1 type  1   force =    -0.00016932    0.00000000   -0.00294289
     atom    2 type  1   force =     0.00016932    0.00000000    0.00294289
     atom    3 type  2   force =     0.00165667    0.00000000    0.00097253
     atom    4 type  2   force =    -0.00165667    0.00000000   -0.00097253
     atom    5 type  2   force =     0.00091144    0.00158671   -0.00103299
     atom    6 type  2   force =     0.00091144   -0.00158671   -0.00103299
     atom    7 type  2   force =    -0.00091144   -0.00158671    0.00103299
     atom    8 type  2   force =    -0.00091144    0.00158671    0.00103299

     Total force =     0.006513     Total SCF correction =     0.000001

     Writing output data file ./Disilane.save/

     General routines

     Parallel routines

   This run was terminated on:   2:42: 3  24May2021

   JOB DONE.