     Program PWSCF v.6.7GPU starts on 24May2021 at  8:15: 9

     R & G space division:  proc/nbgrp/npool/nimage =       4
     Waiting for input...
     Reading input from standard input
     Message from routine read_cards :
     DEPRECATED: no units specified in CELL_PARAMETERS card

     Current dimensions of program PWSCF are:
     Max number of different atomic species (ntypx) = 10
     Max number of k-points (npk) =  40000
     Max angular momentum in pseudopotentials (lmaxx) =  3

     gamma-point specific algorithms are used
     Message from routine setup:
     using ibrav=0 with symmetry is DISCOURAGED, use correct ibrav instead

     Using Slab Decomposition

     bravais-lattice index     =            0
     lattice parameter (alat)  =      20.0000  a.u.
     unit-cell volume          =    8000.0000 (a.u.)^3
     number of atoms/cell      =            5
     number of atomic types    =            2
     number of electrons       =        18.00
     number of Kohn-Sham states=            9
     kinetic-energy cutoff     =      60.0000  Ry
     charge density cutoff     =     240.0000  Ry
     scf convergence threshold =      1.0E-12
     mixing beta               =       0.5000
     number of iterations used =            8  plain     mixing
     Exchange-correlation= PBE
                           (   1   4   3   4   0   0   0)

     celldm(1)=  20.000000  celldm(2)=   0.000000  celldm(3)=   0.000000
     celldm(4)=   0.000000  celldm(5)=   0.000000  celldm(6)=   0.000000

     crystal axes: (cart. coord. in units of alat)
               a(1) = (   1.000000   0.000000   0.000000 )
               a(2) = (   0.000000   1.000000   0.000000 )
               a(3) = (   0.000000   0.000000   1.000000 )

     reciprocal axes: (cart. coord. in units 2 pi/alat)
               b(1) = (  1.000000  0.000000  0.000000 )
               b(2) = (  0.000000  1.000000  0.000000 )
               b(3) = (  0.000000  0.000000  1.000000 )

     PseudoPot. # 1 for Ge read from file:
     /home/ciga/builds/pseudo_potentials/Ge.upf
     MD5 check sum: 88462bb932a16c32ceaf7b092c78b60a
     Pseudo is Norm-conserving + core correction, Zval = 14.0
     Generated using ONCVPSP code by D. R. Hamann
     Using radial grid of 1578 points,  6 beta functions with:
                l(1) =   0
                l(2) =   0
                l(3) =   1
                l(4) =   1
                l(5) =   2
                l(6) =   2

     PseudoPot. # 2 for H  read from file:
     /home/ciga/builds/pseudo_potentials/H.upf
     MD5 check sum: 418cee52d0c413ae40802e6cc37ab9e3
     Pseudo is Norm-conserving, Zval =  1.0
     Generated using ONCVPSP code by D. R. Hamann
     Using radial grid of 1166 points,  3 beta functions with:
                l(1) =   0
                l(2) =   0
                l(3) =   1

     atomic species   valence    mass     pseudopotential
        Ge            14.00    72.64000     Ge( 1.00)
        H              1.00     1.00794     H ( 1.00)

     24 Sym. Ops. (no inversion) found

   Cartesian axes

     site n.     atom                  positions (alat units)
         1           Ge  tau(   1) = (   0.0000000   0.0000000   0.0000000  )
         2           H   tau(   2) = (   0.0831952  -0.0831952   0.0831952  )
         3           H   tau(   3) = (  -0.0831952   0.0831952   0.0831952  )
         4           H   tau(   4) = (  -0.0831952  -0.0831952  -0.0831952  )
         5           H   tau(   5) = (   0.0831952   0.0831952  -0.0831952  )

     number of k points=     1
                       cart. coord. in units 2pi/alat
        k(    1) = (   0.0000000   0.0000000   0.0000000), wk =   2.0000000

     Initial potential from superposition of free atoms

     starting charge   17.99914, renormalised to   18.00000

     negative rho (up, down):  4.191E-04 0.000E+00
     Starting wfcs are   13 randomized atomic wfcs

     Self-consistent Calculation

     iteration #  1     ecut=    60.00 Ry     beta= 0.50
     Davidson diagonalization with overlap
     ethr =  1.00E-02,  avg # of iterations =  2.0

     negative rho (up, down):  1.883E-04 0.000E+00

     total energy              =    -183.20738131 Ry
     estimated scf accuracy    <       0.19688265 Ry

[...]

     negative rho (up, down):  6.488E-06 0.000E+00

[...]

     total energy              =    -183.20260286 Ry
     estimated scf accuracy    <          1.1E-12 Ry

     iteration # 15     ecut=    60.00 Ry     beta= 0.50
     Davidson diagonalization with overlap
     ethr =  1.00E-13,  avg # of iterations =  1.0

     End of self-consistent calculation

          k = 0.0000 0.0000 0.0000 ( 31335 PWs)   bands (ev):

   -28.4279 -28.4279 -28.4279 -28.3504 -28.3504 -13.8834  -8.0292  -8.0292
    -8.0292

     highest occupied level (ev):    -8.0292

!    total energy              =    -183.20260286 Ry
     estimated scf accuracy    <          4.6E-14 Ry

     The total energy is the sum of the following terms:
     one-electron contribution =    -271.40286916 Ry
     hartree contribution      =     138.76281373 Ry
     xc contribution           =     -46.31715264 Ry
     ewald contribution        =      -4.24539479 Ry

     convergence has been achieved in  15 iterations

     Forces acting on atoms (cartesian axes, Ry/au):

     atom    1 type  1   force =     0.00000000    0.00000000    0.00000000
     atom    2 type  2   force =     0.00371704   -0.00371704    0.00371704
     atom    3 type  2   force =    -0.00371704    0.00371704    0.00371704
     atom    4 type  2   force =    -0.00371704   -0.00371704   -0.00371704
     atom    5 type  2   force =     0.00371704    0.00371704   -0.00371704

     Total force =     0.012876     Total SCF correction =     0.000000

     Writing output data file ./Germane.save/

     General routines

     Parallel routines

   This run was terminated on:   8:15:21  24May2021

   JOB DONE.