     Program PWSCF v.6.7GPU starts on 24May2021 at  2:31:58

     R & G space division:  proc/nbgrp/npool/nimage =       4
     Waiting for input...
     Reading input from standard input
     Message from routine read_cards :
     DEPRECATED: no units specified in CELL_PARAMETERS card

     Current dimensions of program PWSCF are:
     Max number of different atomic species (ntypx) = 10
     Max number of k-points (npk) =  40000
     Max angular momentum in pseudopotentials (lmaxx) =  3

     gamma-point specific algorithms are used

     Using Slab Decomposition

     bravais-lattice index     =            0
     lattice parameter (alat)  =      20.0000  a.u.
     unit-cell volume          =    8000.0000 (a.u.)^3
     number of atoms/cell      =           17
     number of atomic types    =            2
     number of electrons       =        32.00
     number of Kohn-Sham states=           16
     kinetic-energy cutoff     =      30.0000  Ry
     charge density cutoff     =     120.0000  Ry
     scf convergence threshold =      1.0E-12
     mixing beta               =       0.5000
     number of iterations used =            8  plain     mixing
     Exchange-correlation= PBE
                           (   1   4   3   4   0   0   0)

     celldm(1)=  20.000000  celldm(2)=   0.000000  celldm(3)=   0.000000
     celldm(4)=   0.000000  celldm(5)=   0.000000  celldm(6)=   0.000000

     crystal axes: (cart. coord. in units of alat)
               a(1) = (   1.000000   0.000000   0.000000 )
               a(2) = (   0.000000   1.000000   0.000000 )
               a(3) = (   0.000000   0.000000   1.000000 )

     reciprocal axes: (cart. coord. in units 2 pi/alat)
               b(1) = (  1.000000  0.000000  0.000000 )
               b(2) = (  0.000000  1.000000  0.000000 )
               b(3) = (  0.000000  0.000000  1.000000 )

     PseudoPot. # 1 for Si read from file:
     /home/ciga/builds/pseudo_potentials/Si.upf
     MD5 check sum: d8e8ea3dd55db7858206a05f373c9c65
     Pseudo is Norm-conserving + core correction, Zval =  4.0
     Generated using ONCVPSP code by D. R. Hamann
     Using radial grid of 1528 points,  6 beta functions with:
                l(1) =   0
                l(2) =   0
                l(3) =   1
                l(4) =   1
                l(5) =   2
                l(6) =   2

     PseudoPot. # 2 for H  read from file:
     /home/ciga/builds/pseudo_potentials/H.upf
     MD5 check sum: 418cee52d0c413ae40802e6cc37ab9e3
     Pseudo is Norm-conserving, Zval =  1.0
     Generated using ONCVPSP code by D. R. Hamann
     Using radial grid of 1166 points,  3 beta functions with:
                l(1) =   0
                l(2) =   0
                l(3) =   1

     atomic species   valence    mass     pseudopotential
        Si             4.00    28.08550     Si( 1.00)
        H              1.00     1.00794     H ( 1.00)

     No symmetry found

   Cartesian axes

     site n.     atom                  positions (alat units)
         1           Si  tau(   1) = (  -0.0004567  -0.3682105  -0.0494961  )
         2           H   tau(   2) = (   0.1123231  -0.3697634  -0.1346666  )
         3           H   tau(   3) = (   0.0021164  -0.4846031   0.0307355  )
         4           H   tau(   4) = (  -0.1170251  -0.3711704  -0.1293415  )
         5           Si  tau(   5) = (   0.0009870  -0.1845978   0.0752964  )
         6           Si  tau(   6) = (  -0.0000383   0.0000012  -0.0481964  )
         7           H   tau(   7) = (  -0.1124773  -0.1838504   0.1600975  )
         8           H   tau(   8) = (   0.1161867  -0.1845228   0.1577288  )
         9           Si  tau(   9) = (  -0.0009920   0.1845953   0.0752987  )
        10           H   tau(  10) = (  -0.1142215  -0.0003236  -0.1320757  )
        11           H   tau(  11) = (   0.1142196   0.0003503  -0.1319474  )
        12           Si  tau(  12) = (   0.0004908   0.3682099  -0.0494965  )
        13           H   tau(  13) = (  -0.0018088   0.4846029   0.0307427  )
        14           H   tau(  14) = (   0.1169488   0.3709770  -0.1295157  )
        15           H   tau(  15) = (  -0.1124097   0.3699713  -0.1344976  )
        16           H   tau(  16) = (   0.1125350   0.1842188   0.1600196  )
        17           H   tau(  17) = (  -0.1161321   0.1841651   0.1578115  )

     number of k points=     1
                       cart. coord. in units 2pi/alat
        k(    1) = (   0.0000000   0.0000000   0.0000000), wk =   2.0000000

     Initial potential from superposition of free atoms

     starting charge   31.99682, renormalised to   32.00000

     negative rho (up, down):  1.678E-04 0.000E+00
     Starting wfcs are   32 randomized atomic wfcs

     Self-consistent Calculation

     iteration #  1     ecut=    30.00 Ry     beta= 0.50
     Davidson diagonalization with overlap
     ethr =  1.00E-02,  avg # of iterations =  3.0

     negative rho (up, down):  5.427E-05 0.000E+00

     total energy              =     -54.84645616 Ry
     estimated scf accuracy    <       0.95970355 Ry

[...]

     negative rho (up, down):  5.347E-07 0.000E+00

[...]

     total energy              =     -54.83904701 Ry
     estimated scf accuracy    <          1.5E-11 Ry

     iteration # 19     ecut=    30.00 Ry     beta= 0.50
     Davidson diagonalization with overlap
     ethr =  1.00E-13,  avg # of iterations =  6.0

     End of self-consistent calculation

          k = 0.0000 0.0000 0.0000 ( 11060 PWs)   bands (ev):

   -19.6628 -12.9056 -12.3691 -11.3196 -10.5561 -10.3672  -8.3175  -7.5746
    -7.5745  -6.9074  -6.7749  -6.6859  -6.2153  -6.0224  -5.7264  -2.2392

     highest occupied level (ev):    -2.2392

!    total energy              =     -54.83904701 Ry
     estimated scf accuracy    <          3.7E-13 Ry

     The total energy is the sum of the following terms:
     one-electron contribution =    -136.67028594 Ry
     hartree contribution      =      71.52523577 Ry
     xc contribution           =     -24.01930161 Ry
     ewald contribution        =      34.32530478 Ry

     convergence has been achieved in  19 iterations

     Forces acting on atoms (cartesian axes, Ry/au):

     atom    1 type  1   force =     0.00172148    0.27386275   -0.03320817
     atom    2 type  2   force =     0.00340266   -0.01267963    0.00270761
     atom    3 type  2   force =     0.47300324    3.72407740    0.03957442
     atom    4 type  2   force =    -0.00323211   -0.01436088    0.00423473
     atom    5 type  1   force =    -0.00067179    0.01921302   -0.02832289
     atom    6 type  1   force =     0.00022129   -0.00000089    0.02665412
     atom    7 type  2   force =    -0.00234039   -0.00326537    0.00143249
     atom    8 type  2   force =     0.00236770   -0.00310922    0.00132464
     atom    9 type  1   force =     0.00053805   -0.01919703   -0.02832673
     atom   10 type  2   force =    -0.00226804   -0.00015766   -0.00189817
     atom   11 type  2   force =     0.00232499    0.00014762   -0.00205399
     atom   12 type  1   force =    -0.00210138   -0.27386034   -0.03317214
     atom   13 type  2   force =    -0.47282361   -3.72410167    0.04133970
     atom   14 type  2   force =     0.00326731    0.01432143    0.00421320
     atom   15 type  2   force =    -0.00336749    0.01273370    0.00274371
     atom   16 type  2   force =     0.00233366    0.00304421    0.00142352
     atom   17 type  2   force =    -0.00237554    0.00333257    0.00133395

     Total force =     5.323949     Total SCF correction =     0.000001

     Writing output data file ./Pentasilane.save/

     General routines

     Parallel routines

   This run was terminated on:   2:32: 7  24May2021

   JOB DONE.