     Program PWSCF v.6.7GPU starts on 24May2021 at  3:44:57

     R & G space division:  proc/nbgrp/npool/nimage =       4
     Waiting for input...
     Reading input from standard input
     Message from routine read_cards :
     DEPRECATED: no units specified in CELL_PARAMETERS card

     Current dimensions of program PWSCF are:
     Max number of different atomic species (ntypx) = 10
     Max number of k-points (npk) =  40000
     Max angular momentum in pseudopotentials (lmaxx) =  3

     gamma-point specific algorithms are used
     Message from routine setup:
     using ibrav=0 with symmetry is DISCOURAGED, use correct ibrav instead

     Using Slab Decomposition

     bravais-lattice index     =            0
     lattice parameter (alat)  =      20.0000  a.u.
     unit-cell volume          =    8000.0000 (a.u.)^3
     number of atoms/cell      =            6
     number of atomic types    =            1
     number of electrons       =        54.00
     number of Kohn-Sham states=           27
     kinetic-energy cutoff     =      65.0000  Ry
     charge density cutoff     =     260.0000  Ry
     scf convergence threshold =      1.0E-12
     mixing beta               =       0.5000
     number of iterations used =            8  plain     mixing
     Exchange-correlation= PBE
                           (   1   4   3   4   0   0   0)

     celldm(1)=  20.000000  celldm(2)=   0.000000  celldm(3)=   0.000000
     celldm(4)=   0.000000  celldm(5)=   0.000000  celldm(6)=   0.000000

     crystal axes: (cart. coord. in units of alat)
               a(1) = (   1.000000   0.000000   0.000000 )
               a(2) = (   0.000000   1.000000   0.000000 )
               a(3) = (   0.000000   0.000000   1.000000 )

     reciprocal axes: (cart. coord. in units 2 pi/alat)
               b(1) = (  1.000000  0.000000  0.000000 )
               b(2) = (  0.000000  1.000000  0.000000 )
               b(3) = (  0.000000  0.000000  1.000000 )

     PseudoPot. # 1 for Na read from file:
     /home/ciga/builds/pseudo_potentials/Na.upf
     MD5 check sum: 5cc9e3e9635f0b9e0056521f6116a380
     Pseudo is Norm-conserving, Zval =  9.0
     Generated using ONCVPSP code by D. R. Hamann
     Using radial grid of 1992 points,  4 beta functions with:
                l(1) =   0
                l(2) =   0
                l(3) =   1
                l(4) =   1

     atomic species   valence    mass     pseudopotential
        Na             9.00    22.98977     Na( 1.00)

      2 Sym. Ops. (no inversion) found

   Cartesian axes

     site n.     atom                  positions (alat units)
         1           Na  tau(   1) = (  -0.2336925  -0.1697875  -0.0223679  )
         2           Na  tau(   2) = (  -0.2336925   0.1697875  -0.0223679  )
         3           Na  tau(   3) = (   0.0892626  -0.2747220  -0.0223679  )
         4           Na  tau(   4) = (   0.0892626   0.2747220  -0.0223679  )
         5           Na  tau(   5) = (   0.2888598   0.0000000  -0.0223679  )
         6           Na  tau(   6) = (   0.0000000   0.0000000   0.1118393  )

     number of k points=     1
                       cart. coord. in units 2pi/alat
        k(    1) = (   0.0000000   0.0000000   0.0000000), wk =   2.0000000

     Initial potential from superposition of free atoms

     starting charge   53.96240, renormalised to   54.00000

     negative rho (up, down):  5.213E-05 0.000E+00
     Starting wfcs are   30 randomized atomic wfcs

     Self-consistent Calculation

     iteration #  1     ecut=    65.00 Ry     beta= 0.50
     Davidson diagonalization with overlap
     ethr =  1.00E-02,  avg # of iterations =  2.0

     Threshold (ethr) on eigenvalues was too large:
     Diagonalizing with lowered threshold

     Davidson diagonalization with overlap
     ethr =  1.28E-04,  avg # of iterations =  4.0

     negative rho (up, down):  3.416E-07 0.000E+00

     total energy              =    -548.18926947 Ry
     estimated scf accuracy    <       0.19990418 Ry

[...]

     total energy              =    -548.23493954 Ry
     estimated scf accuracy    <          2.9E-12 Ry

     iteration # 15     ecut=    65.00 Ry     beta= 0.50
     Davidson diagonalization with overlap
     ethr =  1.00E-13,  avg # of iterations =  1.0

     End of self-consistent calculation

          k = 0.0000 0.0000 0.0000 ( 35376 PWs)   bands (ev):

   -55.3584 -55.2150 -55.1412 -55.1412 -54.9907 -54.9902 -27.2578 -27.2562
   -27.2227 -27.1298 -27.0972 -27.0935 -27.0416 -27.0403 -27.0373 -27.0354
   -27.0133 -27.0131 -26.8883 -26.8869 -26.8861 -26.8848 -26.8753 -26.8643
    -3.2929  -1.9393  -1.9307

     highest occupied level (ev):    -1.9307

!    total energy              =    -548.23493954 Ry
     estimated scf accuracy    <          9.2E-13 Ry

     The total energy is the sum of the following terms:
     one-electron contribution =    -828.16702665 Ry
     hartree contribution      =     406.70097672 Ry
     xc contribution           =     -82.04041559 Ry
     ewald contribution        =     -44.72847402 Ry

     convergence has been achieved in  15 iterations

     Forces acting on atoms (cartesian axes, Ry/au):

     atom    1 type  1   force =     0.00177440    0.00010512    0.00028155
     atom    2 type  1   force =     0.00177440   -0.00010512    0.00028155
     atom    3 type  1   force =     0.00154707    0.00496273    0.00012714
     atom    4 type  1   force =     0.00154707   -0.00496273    0.00012714
     atom    5 type  1   force =    -0.00535678    0.00000000    0.00022625
     atom    6 type  1   force =    -0.00128617    0.00000000   -0.00104365

     Total force =     0.009594     Total SCF correction =     0.000004

     Writing output data file ./Sodium_hexamer.save/

     General routines

     Parallel routines

   This run was terminated on:   3:45:33  24May2021

   JOB DONE.