     Program PWSCF v.6.7GPU starts on 24May2021 at  3:43:46

     R & G space division:  proc/nbgrp/npool/nimage =       4
     Waiting for input...
     Reading input from standard input
     Message from routine read_cards :
     DEPRECATED: no units specified in CELL_PARAMETERS card

     Current dimensions of program PWSCF are:
     Max number of different atomic species (ntypx) = 10
     Max number of k-points (npk) =  40000
     Max angular momentum in pseudopotentials (lmaxx) =  3

     gamma-point specific algorithms are used
     Message from routine setup:
     using ibrav=0 with symmetry is DISCOURAGED, use correct ibrav instead

     Using Slab Decomposition

     bravais-lattice index     =            0
     lattice parameter (alat)  =      20.0000  a.u.
     unit-cell volume          =    8000.0000 (a.u.)^3
     number of atoms/cell      =            6
     number of atomic types    =            1
     number of electrons       =        54.00
     number of Kohn-Sham states=           27
     kinetic-energy cutoff     =      50.0000  Ry
     charge density cutoff     =     200.0000  Ry
     scf convergence threshold =      1.0E-12
     mixing beta               =       0.5000
     number of iterations used =            8  plain     mixing
     Exchange-correlation= PBE
                           (   1   4   3   4   0   0   0)

     celldm(1)=  20.000000  celldm(2)=   0.000000  celldm(3)=   0.000000
     celldm(4)=   0.000000  celldm(5)=   0.000000  celldm(6)=   0.000000

     crystal axes: (cart. coord. in units of alat)
               a(1) = (   1.000000   0.000000   0.000000 )
               a(2) = (   0.000000   1.000000   0.000000 )
               a(3) = (   0.000000   0.000000   1.000000 )

     reciprocal axes: (cart. coord. in units 2 pi/alat)
               b(1) = (  1.000000  0.000000  0.000000 )
               b(2) = (  0.000000  1.000000  0.000000 )
               b(3) = (  0.000000  0.000000  1.000000 )

     PseudoPot. # 1 for Na read from file:
     /home/ciga/builds/pseudo_potentials/Na.upf
     MD5 check sum: 5cc9e3e9635f0b9e0056521f6116a380
     Pseudo is Norm-conserving, Zval =  9.0
     Generated using ONCVPSP code by D. R. Hamann
     Using radial grid of 1992 points,  4 beta functions with:
                l(1) =   0
                l(2) =   0
                l(3) =   1
                l(4) =   1

     atomic species   valence    mass     pseudopotential
        Na             9.00    22.98977     Na( 1.00)

      2 Sym. Ops. (no inversion) found

   Cartesian axes

     site n.     atom                  positions (alat units)
         1           Na  tau(   1) = (  -0.2336925  -0.1697875  -0.0223679  )
         2           Na  tau(   2) = (  -0.2336925   0.1697875  -0.0223679  )
         3           Na  tau(   3) = (   0.0892626  -0.2747220  -0.0223679  )
         4           Na  tau(   4) = (   0.0892626   0.2747220  -0.0223679  )
         5           Na  tau(   5) = (   0.2888598   0.0000000  -0.0223679  )
         6           Na  tau(   6) = (   0.0000000   0.0000000   0.1118393  )

     number of k points=     1
                       cart. coord. in units 2pi/alat
        k(    1) = (   0.0000000   0.0000000   0.0000000), wk =   2.0000000

     Initial potential from superposition of free atoms

     starting charge   53.96240, renormalised to   54.00000

     negative rho (up, down):  2.475E-03 0.000E+00
     Starting wfcs are   30 randomized atomic wfcs

     Self-consistent Calculation

     iteration #  1     ecut=    50.00 Ry     beta= 0.50
     Davidson diagonalization with overlap
     ethr =  1.00E-02,  avg # of iterations =  2.0

     Threshold (ethr) on eigenvalues was too large:
     Diagonalizing with lowered threshold

     Davidson diagonalization with overlap
     ethr =  2.01E-04,  avg # of iterations =  4.0

     negative rho (up, down):  8.012E-04 0.000E+00

     total energy              =    -547.17166592 Ry
     estimated scf accuracy    <       0.25526619 Ry

[...]

     negative rho (up, down):  2.322E-06 0.000E+00

[...]

     total energy              =    -547.22160990 Ry
     estimated scf accuracy    <          1.1E-12 Ry

     iteration # 15     ecut=    50.00 Ry     beta= 0.50
     Davidson diagonalization with overlap
     ethr =  1.00E-13,  avg # of iterations =  1.0

     End of self-consistent calculation

          k = 0.0000 0.0000 0.0000 ( 23917 PWs)   bands (ev):

   -56.0415 -55.9136 -55.8253 -55.8253 -55.6730 -55.6725 -27.3989 -27.3959
   -27.3622 -27.2841 -27.2541 -27.2485 -27.1836 -27.1802 -27.1796 -27.1741
   -27.1551 -27.1529 -27.0290 -27.0254 -27.0251 -27.0230 -27.0105 -27.0087
    -3.3167  -1.9561  -1.9471

     highest occupied level (ev):    -1.9471

!    total energy              =    -547.22160990 Ry
     estimated scf accuracy    <          2.8E-13 Ry

     The total energy is the sum of the following terms:
     one-electron contribution =    -825.35222534 Ry
     hartree contribution      =     404.60430568 Ry
     xc contribution           =     -81.74521621 Ry
     ewald contribution        =     -44.72847403 Ry

     convergence has been achieved in  15 iterations

     Forces acting on atoms (cartesian axes, Ry/au):

     atom    1 type  1   force =     0.00229434    0.00041036    0.00018574
     atom    2 type  1   force =     0.00229434   -0.00041036    0.00018574
     atom    3 type  1   force =     0.00123162    0.00563833    0.00001126
     atom    4 type  1   force =     0.00123162   -0.00563833    0.00001126
     atom    5 type  1   force =    -0.00553727    0.00000000    0.00026868
     atom    6 type  1   force =    -0.00151463    0.00000000   -0.00066268

     Total force =     0.010536     Total SCF correction =     0.000002

     Writing output data file ./Sodium_hexamer.save/

     General routines

     Parallel routines

   This run was terminated on:   3:44: 8  24May2021

   JOB DONE.