     Program PWSCF v.6.7GPU starts on 24May2021 at  3:42:57

     R & G space division:  proc/nbgrp/npool/nimage =       4
     Waiting for input...
     Reading input from standard input
     Message from routine read_cards :
     DEPRECATED: no units specified in CELL_PARAMETERS card

     Current dimensions of program PWSCF are:
     Max number of different atomic species (ntypx) = 10
     Max number of k-points (npk) =  40000
     Max angular momentum in pseudopotentials (lmaxx) =  3

     gamma-point specific algorithms are used
     Message from routine setup:
     using ibrav=0 with symmetry is DISCOURAGED, use correct ibrav instead

     Using Slab Decomposition

     bravais-lattice index     =            0
     lattice parameter (alat)  =      20.0000  a.u.
     unit-cell volume          =    8000.0000 (a.u.)^3
     number of atoms/cell      =            6
     number of atomic types    =            1
     number of electrons       =        54.00
     number of Kohn-Sham states=           27
     kinetic-energy cutoff     =      35.0000  Ry
     charge density cutoff     =     140.0000  Ry
     scf convergence threshold =      1.0E-12
     mixing beta               =       0.5000
     number of iterations used =            8  plain     mixing
     Exchange-correlation= PBE
                           (   1   4   3   4   0   0   0)

     celldm(1)=  20.000000  celldm(2)=   0.000000  celldm(3)=   0.000000
     celldm(4)=   0.000000  celldm(5)=   0.000000  celldm(6)=   0.000000

     crystal axes: (cart. coord. in units of alat)
               a(1) = (   1.000000   0.000000   0.000000 )
               a(2) = (   0.000000   1.000000   0.000000 )
               a(3) = (   0.000000   0.000000   1.000000 )

     reciprocal axes: (cart. coord. in units 2 pi/alat)
               b(1) = (  1.000000  0.000000  0.000000 )
               b(2) = (  0.000000  1.000000  0.000000 )
               b(3) = (  0.000000  0.000000  1.000000 )

     PseudoPot. # 1 for Na read from file:
     /home/ciga/builds/pseudo_potentials/Na.upf
     MD5 check sum: 5cc9e3e9635f0b9e0056521f6116a380
     Pseudo is Norm-conserving, Zval =  9.0
     Generated using ONCVPSP code by D. R. Hamann
     Using radial grid of 1992 points,  4 beta functions with:
                l(1) =   0
                l(2) =   0
                l(3) =   1
                l(4) =   1

     atomic species   valence    mass     pseudopotential
        Na             9.00    22.98977     Na( 1.00)

      2 Sym. Ops. (no inversion) found

   Cartesian axes

     site n.     atom                  positions (alat units)
         1           Na  tau(   1) = (  -0.2336925  -0.1697875  -0.0223679  )
         2           Na  tau(   2) = (  -0.2336925   0.1697875  -0.0223679  )
         3           Na  tau(   3) = (   0.0892626  -0.2747220  -0.0223679  )
         4           Na  tau(   4) = (   0.0892626   0.2747220  -0.0223679  )
         5           Na  tau(   5) = (   0.2888598   0.0000000  -0.0223679  )
         6           Na  tau(   6) = (   0.0000000   0.0000000   0.1118393  )

     number of k points=     1
                       cart. coord. in units 2pi/alat
        k(    1) = (   0.0000000   0.0000000   0.0000000), wk =   2.0000000

     Initial potential from superposition of free atoms

     starting charge   53.96240, renormalised to   54.00000

     negative rho (up, down):  1.589E-01 0.000E+00
     Starting wfcs are   30 randomized atomic wfcs

     Self-consistent Calculation

     iteration #  1     ecut=    35.00 Ry     beta= 0.50
     Davidson diagonalization with overlap
     ethr =  1.00E-02,  avg # of iterations =  2.0

     negative rho (up, down):  5.818E-02 0.000E+00

     total energy              =    -539.21194142 Ry
     estimated scf accuracy    <       1.50378838 Ry

[...]

     negative rho (up, down):  6.461E-06 0.000E+00

[...]

     total energy              =    -539.35668556 Ry
     estimated scf accuracy    <          5.4E-12 Ry

     iteration # 16     ecut=    35.00 Ry     beta= 0.50
     Davidson diagonalization with overlap
     ethr =  1.00E-13,  avg # of iterations =  2.0

     End of self-consistent calculation

          k = 0.0000 0.0000 0.0000 ( 14009 PWs)   bands (ev):

   -60.0039 -60.0013 -59.7949 -59.7945 -59.6341 -59.6337 -27.4941 -27.4645
   -27.4567 -27.4262 -27.4023 -27.3770 -27.2271 -27.2240 -27.2045 -27.2003
   -27.1835 -27.1773 -27.0816 -27.0664 -27.0613 -27.0444 -27.0221 -27.0047
    -3.4292  -2.0337  -2.0225

     highest occupied level (ev):    -2.0225

!    total energy              =    -539.35668556 Ry
     estimated scf accuracy    <          9.9E-13 Ry

     The total energy is the sum of the following terms:
     one-electron contribution =    -807.40359707 Ry
     hartree contribution      =     392.44614773 Ry
     xc contribution           =     -79.67076220 Ry
     ewald contribution        =     -44.72847402 Ry

     convergence has been achieved in  16 iterations

     Forces acting on atoms (cartesian axes, Ry/au):

     atom    1 type  1   force =     0.00347787    0.00089057    0.00075549
     atom    2 type  1   force =     0.00347787   -0.00089057    0.00075549
     atom    3 type  1   force =     0.00103151    0.00706503    0.00041473
     atom    4 type  1   force =     0.00103151   -0.00706503    0.00041473
     atom    5 type  1   force =    -0.00740721    0.00000000    0.00012477
     atom    6 type  1   force =    -0.00161153    0.00000000   -0.00246521

     Total force =     0.013884     Total SCF correction =     0.000003

     Writing output data file ./Sodium_hexamer.save/

     General routines

     Parallel routines

   This run was terminated on:   3:43: 8  24May2021

   JOB DONE.