     Program PWSCF v.6.7GPU starts on 24May2021 at  8:44:24

     R & G space division:  proc/nbgrp/npool/nimage =       4
     Waiting for input...
     Reading input from standard input
     Message from routine read_cards :
     DEPRECATED: no units specified in CELL_PARAMETERS card

     Current dimensions of program PWSCF are:
     Max number of different atomic species (ntypx) = 10
     Max number of k-points (npk) =  40000
     Max angular momentum in pseudopotentials (lmaxx) =  3

     gamma-point specific algorithms are used
     Message from routine setup:
     using ibrav=0 with symmetry is DISCOURAGED, use correct ibrav instead

     Using Slab Decomposition

     bravais-lattice index     =            0
     lattice parameter (alat)  =      20.0000  a.u.
     unit-cell volume          =    8000.0000 (a.u.)^3
     number of atoms/cell      =            5
     number of atomic types    =            2
     number of electrons       =        40.00
     number of Kohn-Sham states=           20
     kinetic-energy cutoff     =      90.0000  Ry
     charge density cutoff     =     360.0000  Ry
     scf convergence threshold =      1.0E-12
     mixing beta               =       0.5000
     number of iterations used =            8  plain     mixing
     Exchange-correlation= PBE
                           (   1   4   3   4   0   0   0)

     celldm(1)=  20.000000  celldm(2)=   0.000000  celldm(3)=   0.000000
     celldm(4)=   0.000000  celldm(5)=   0.000000  celldm(6)=   0.000000

     crystal axes: (cart. coord. in units of alat)
               a(1) = (   1.000000   0.000000   0.000000 )
               a(2) = (   0.000000   1.000000   0.000000 )
               a(3) = (   0.000000   0.000000   1.000000 )

     reciprocal axes: (cart. coord. in units 2 pi/alat)
               b(1) = (  1.000000  0.000000  0.000000 )
               b(2) = (  0.000000  1.000000  0.000000 )
               b(3) = (  0.000000  0.000000  1.000000 )

     PseudoPot. # 1 for Ti read from file:
     /home/ciga/builds/pseudo_potentials/Ti.upf
     MD5 check sum: 4a66ab2547244c2167df87966c0752a5
     Pseudo is Norm-conserving + core correction, Zval = 12.0
     Generated using ONCVPSP code by D. R. Hamann
     Using radial grid of 1586 points,  6 beta functions with:
                l(1) =   0
                l(2) =   0
                l(3) =   1
                l(4) =   1
                l(5) =   2
                l(6) =   2

     PseudoPot. # 2 for F  read from file:
     /home/ciga/builds/pseudo_potentials/F.upf
     MD5 check sum: abe63f1f76c40dc8c91ba0a2d7d66777
     Pseudo is Norm-conserving + core correction, Zval =  7.0
     Generated using ONCVPSP code by D. R. Hamann
     Using radial grid of  832 points,  5 beta functions with:
                l(1) =   0
                l(2) =   0
                l(3) =   1
                l(4) =   1
                l(5) =   2

     atomic species   valence    mass     pseudopotential
        Ti            12.00    47.86700     Ti( 1.00)
        F              7.00    18.99840     F ( 1.00)

     24 Sym. Ops. (no inversion) found

   Cartesian axes

     site n.     atom                  positions (alat units)
         1           Ti  tau(   1) = (   0.0000000   0.0000000   0.0000000  )
         2           F   tau(   2) = (   0.0956863  -0.0956863   0.0956863  )
         3           F   tau(   3) = (  -0.0956863   0.0956863   0.0956863  )
         4           F   tau(   4) = (  -0.0956863  -0.0956863  -0.0956863  )
         5           F   tau(   5) = (   0.0956863   0.0956863  -0.0956863  )

     number of k points=     1
                       cart. coord. in units 2pi/alat
        k(    1) = (   0.0000000   0.0000000   0.0000000), wk =   2.0000000

     Initial potential from superposition of free atoms

     starting charge   39.99839, renormalised to   40.00000

     negative rho (up, down):  1.735E-04 0.000E+00
     Starting wfcs are   26 randomized atomic wfcs

     Self-consistent Calculation

     iteration #  1     ecut=    90.00 Ry     beta= 0.50
     Davidson diagonalization with overlap
     ethr =  1.00E-02,  avg # of iterations =  2.0

     negative rho (up, down):  4.743E-05 0.000E+00

     total energy              =    -315.96715108 Ry
     estimated scf accuracy    <       1.17171668 Ry

[...]

     negative rho (up, down):  2.784E-07 0.000E+00

[...]

     total energy              =    -316.46336638 Ry
     estimated scf accuracy    <          2.6E-11 Ry

     iteration # 28     ecut=    90.00 Ry     beta= 0.50
     Davidson diagonalization with overlap
     ethr =  1.00E-13,  avg # of iterations =  5.0

     End of self-consistent calculation

          k = 0.0000 0.0000 0.0000 ( 57657 PWs)   bands (ev):

   -63.9152 -40.4306 -40.4306 -40.4306 -29.0516 -28.6611 -28.6611 -28.6611
   -11.4028 -11.4028 -11.4028 -11.0543 -11.0543 -10.9471 -10.2881 -10.2881
   -10.2881  -9.8494  -9.8494  -9.8494

     highest occupied level (ev):    -9.8494

!    total energy              =    -316.46336638 Ry
     estimated scf accuracy    <          4.9E-13 Ry

     The total energy is the sum of the following terms:
     one-electron contribution =    -697.08538623 Ry
     hartree contribution      =     351.44555624 Ry
     xc contribution           =     -61.46511618 Ry
     ewald contribution        =      90.64157979 Ry

     convergence has been achieved in  28 iterations

     Forces acting on atoms (cartesian axes, Ry/au):

     atom    1 type  1   force =     0.00000000    0.00000000    0.00000000
     atom    2 type  2   force =     0.00420358   -0.00420358    0.00420358
     atom    3 type  2   force =    -0.00420358    0.00420358    0.00420358
     atom    4 type  2   force =    -0.00420358   -0.00420358   -0.00420358
     atom    5 type  2   force =     0.00420358    0.00420358   -0.00420358

     Total force =     0.014562     Total SCF correction =     0.000002

     Writing output data file ./Titanium_fluoride.save/

     General routines

     Parallel routines

   This run was terminated on:   8:45:48  24May2021

   JOB DONE.